\ LP format - for model browsing. Use MPS format to capture full model detail.
Maximize
  2 x_1 + 7 x_2 + 3 x_3 + 3 x_4 + 5 x_5 + x_6 + 10 x_7 + 10 x_8 + 5 x_9
   + 9 x_10 + 10 x_11 + 3 x_12 + 10 x_13 + 4 x_14 + 2 x_15 + 8 x_16
   + 2 x_17 + 2 x_18 + 3 x_19 + 6 x_20
Subject To
 C_1: 3 x_1 + x_2 + 5 x_3 + 2 x_4 + 6 x_5 + 4 x_6 + 7 x_7 + 10 x_8 + 2 x_9
   + 2 x_10 + 4 x_11 + 5 x_12 + 10 x_13 + 8 x_14 + 8 x_15 + 4 x_16
   + 10 x_17 + 9 x_18 + 5 x_19 + 4 x_20 <= 54
 C_2: 8 x_1 + 6 x_2 + 6 x_3 + 7 x_4 + x_5 + 7 x_6 + 6 x_7 + 5 x_8 + 8 x_9
   + 10 x_10 + 10 x_11 + 3 x_12 + 10 x_13 + 6 x_14 + 4 x_15 + 8 x_16
   + 10 x_17 + 2 x_18 + 7 x_19 + 3 x_20 <= 63
 C_3: 5 x_1 + 3 x_2 + 10 x_3 + 6 x_4 + 10 x_5 + 7 x_6 + x_7 + 2 x_8 + 7 x_9
   + 5 x_10 + 5 x_11 + 6 x_12 + 10 x_13 + 3 x_14 + 3 x_15 + 3 x_16 + 9 x_17
   + 10 x_18 + 7 x_19 + 9 x_20 <= 60
 C_4: 10 x_1 + 6 x_2 + 3 x_3 + 9 x_4 + x_5 + 8 x_6 + 8 x_7 + 2 x_8 + 9 x_9
   + 5 x_10 + 7 x_11 + 5 x_12 + 7 x_13 + 8 x_14 + 2 x_15 + 8 x_16 + 6 x_17
   + 2 x_18 + 9 x_19 + 2 x_20 <= 58
 C_5: 6 x_1 + 6 x_2 + 8 x_3 + 7 x_4 + 8 x_5 + 2 x_6 + 9 x_7 + 8 x_8 + x_9
   + 7 x_10 + 6 x_11 + 10 x_12 + 2 x_13 + 10 x_14 + x_15 + 5 x_16 + 7 x_17
   + 8 x_18 + 8 x_19 + 7 x_20 <= 63
Bounds
Binaries
 x_1 x_2 x_3 x_4 x_5 x_6 x_7 x_8 x_9 x_10 x_11 x_12 x_13 x_14 x_15 x_16
 x_17 x_18 x_19 x_20
End
